lemmas/cluster_results/cvc4_cbqi/pow5.smt2.log
c host: barrett16.stanford.edu
c start: Tue Feb 12 10:24:18 PST 2019
c benchmark: /barrett/scratch/yoniz/git/invertibility/lemmas/bench/pow5.smt2
c solver: ./cvc4
c solver options: --cbqi-all
unsat
c done
